100
300
40
0 0
10 0
75 8
24 54
66 57
97 80
91 36
9 64
83 58
74 20
48 30
78 89
28 98
60 69
68 42
59 35
16 67
93 26
6 1
33 78
55 62
26 50
50 25
58 95
29 19
59 49
80 82
18 28
80 60
51 70
91 28
35 82
15 97
38 66
61 54
13 14
1 88
76 76
46 31
34 74
68 22
0 0
30
40
60
30
50
50
40
50
70
70
40
60
40
40
30
30
40
30
40
50
30
40
60
30
50
50
40
50
70
70
40
60
40
40
30
30
40
30
40
50
